341012 142156 79 199
340760 141880 78 200
341012 142156 78 201
341012 142156 78 202
340870 142085 94 203
340736 142018 62 204
340870 142085 78 205
340928 141964 78 206
341012 142156 79 207
340984 141992 78 208
340666 141983 78 209
340928 141964 78 210
340838 141919 78 211
340948 141824 78 212
340990 141995 78 213
340736 142018 78 214
340990 141995 94 215
340828 141814 63 216
340990 141995 78 217
340222 141861 94 218
341012 142156 93 219
340920 141960 78 220
341012 142156 79 221
340990 141995 78 222
341012 142156 78 223
341012 142156 78 224
340848 141924 78 225
340990 141995 78 226
341012 142156 78 227
341012 142156 78 228
